# Cost: 333

# Tail Head Net
221 201 1
241 221 1
261 241 1
262 261 1
263 262 1
263 264 1
264 664 1
274 275 1
275 276 1
276 277 1
277 278 1
278 279 1
279 280 1
283 263 1
303 283 1
323 303 1
343 323 1
363 343 1
383 363 1
664 665 1
665 666 1
666 667 1
667 668 1
668 669 1
669 670 1
670 671 1
671 672 1
672 673 1
673 674 1
674 274 1
12 32 2
32 52 2
52 72 2
70 90 2
71 70 2
72 71 2
72 73 2
73 74 2
74 75 2
75 76 2
76 77 2
77 78 2
78 79 2
79 80 2
90 110 2
110 130 2
129 149 2
130 129 2
149 169 2
169 189 2
189 209 2
209 229 2
229 249 2
249 269 2
269 289 2
289 309 2
309 329 2
329 349 2
349 369 2
349 749 2
369 389 2
741 341 2
742 741 2
743 742 2
744 743 2
745 744 2
746 745 2
747 746 2
748 747 2
749 748 2
23 3 3
42 41 3
43 23 3
43 42 3
63 43 3
64 63 3
84 64 3
104 84 3
105 104 3
232 632 3
252 232 3
272 252 3
292 272 3
312 292 3
312 313 3
313 314 3
314 315 3
315 316 3
316 317 3
317 318 3
318 319 3
319 320 3
332 312 3
352 332 3
372 352 3
392 372 3
505 105 3
525 505 3
526 525 3
527 526 3
528 527 3
529 528 3
530 529 3
531 530 3
532 531 3
552 532 3
572 552 3
592 572 3
612 592 3
632 612 3
120 140 4
140 160 4
160 180 4
171 571 4
172 171 4
173 172 4
174 173 4
175 174 4
176 175 4
177 176 4
178 177 4
179 178 4
180 179 4
180 200 4
282 302 4
302 322 4
322 342 4
342 362 4
362 382 4
421 21 4
441 421 4
461 441 4
481 461 4
501 481 4
521 501 4
541 521 4
542 541 4
562 542 4
562 582 4
563 562 4
564 563 4
565 564 4
566 565 4
567 566 4
568 567 4
569 568 4
570 569 4
571 570 4
582 602 4
602 622 4
622 642 4
642 662 4
662 682 4
682 282 4
97 117 5
98 97 5
99 98 5
100 99 5
117 137 5
131 151 5
132 131 5
133 132 5
134 133 5
135 134 5
136 135 5
137 136 5
150 170 5
151 150 5
170 190 5
190 210 5
210 230 5
230 250 5
250 270 5
270 290 5
290 310 5
310 330 5
330 350 5
350 370 5
370 390 5
385 384 5
390 790 5
785 385 5
786 785 5
787 786 5
788 787 5
789 788 5
790 789 5
9 409 6
46 66 6
66 86 6
86 106 6
106 126 6
126 146 6
146 166 6
166 186 6
186 206 6
206 226 6
226 246 6
246 266 6
266 286 6
286 306 6
306 326 6
326 346 6
346 366 6
366 386 6
402 2 6
403 402 6
404 403 6
405 404 6
406 405 6
406 426 6
407 406 6
408 407 6
409 408 6
426 446 6
446 46 6
301 281 7
321 301 7
377 777 7
378 377 7
379 378 7
379 380 7
399 379 7
721 321 7
776 1176 7
777 776 7
1121 721 7
1122 1121 7
1123 1122 7
1124 1123 7
1125 1124 7
1126 1125 7
1127 1126 7
1128 1127 7
1129 1128 7
1130 1129 7
1131 1130 7
1151 1131 7
1152 1151 7
1153 1152 7
1154 1153 7
1155 1154 7
1175 1155 7
1176 1175 7
7 27 8
27 47 8
47 67 8
67 87 8
87 107 8
107 127 8
127 147 8
147 167 8
167 187 8
187 207 8
207 227 8
227 247 8
247 267 8
267 287 8
287 307 8
307 327 8
327 347 8
327 727 8
333 334 8
334 335 8
335 336 8
336 337 8
337 338 8
338 339 8
339 340 8
347 367 8
367 387 8
367 767 8
387 388 8
727 728 8
728 729 8
729 730 8
730 731 8
731 732 8
732 733 8
733 333 8
761 361 8
762 761 8
763 762 8
764 763 8
765 764 8
766 765 8
767 766 8
14 414 9
82 102 9
101 121 9
102 101 9
121 141 9
410 430 9
411 410 9
412 411 9
413 412 9
414 413 9
427 447 9
428 427 9
429 428 9
430 429 9
447 467 9
465 485 9
466 465 9
467 466 9
482 82 9
483 482 9
484 483 9
485 484 9
33 13 10
53 33 10
394 794 10
453 53 10
734 1134 10
754 734 10
774 754 10
794 774 10
853 453 10
873 853 10
874 873 10
894 874 10
914 894 10
934 914 10
954 934 10
974 954 10
994 974 10
1014 994 10
1034 1014 10
1054 1034 10
1074 1054 10
1094 1074 10
1114 1094 10
1134 1114 10
